<number of tasks>
100

<cycle time>
1000

<order strength>
0.898


<task times>
1 202
2 209
3 129
4 191
5 168
6 301
7 73
8 186
9 278
10 230
11 137
12 263
13 143
14 155
15 97
16 255
17 209
18 121
19 126
20 162
21 135
22 178
23 47
24 138
25 191
26 131
27 90
28 37
29 100
30 200
31 213
32 120
33 118
34 195
35 94
36 243
37 141
38 31
39 111
40 151
41 39
42 21
43 72
44 252
45 140
46 169
47 174
48 178
49 54
50 51
51 80
52 137
53 186
54 108
55 181
56 85
57 204
58 37
59 42
60 44
61 27
62 81
63 119
64 116
65 235
66 295
67 86
68 115
69 103
70 280
71 49
72 170
73 41
74 59
75 164
76 51
77 178
78 246
79 110
80 50
81 71
82 112
83 37
84 88
85 157
86 69
87 95
88 161
89 107
90 193
91 127
92 151
93 130
94 168
95 132
96 86
97 150
98 286
99 176
100 77

<precedence relations>
1,4
1,5
1,6
1,7
2,4
2,5
2,6
2,7
3,4
3,5
3,6
3,7
4,8
4,9
4,10
5,8
5,9
5,10
6,8
6,9
6,10
7,8
7,9
7,10
8,11
8,12
8,13
9,11
9,12
9,13
10,11
10,12
10,13
11,14
11,15
11,16
11,17
12,14
12,15
12,16
12,17
13,14
13,15
13,16
13,17
14,18
14,19
14,20
14,21
14,22
15,18
15,19
15,20
15,21
15,22
16,18
16,19
16,20
16,21
16,22
17,18
17,19
17,20
17,21
17,22
18,23
19,23
20,23
21,23
22,23
23,24
23,25
24,26
24,27
24,28
25,26
25,27
25,28
26,29
26,30
26,31
27,29
27,30
27,31
28,29
28,30
28,31
29,32
29,33
29,34
29,35
29,36
30,32
30,33
30,34
30,35
30,36
31,32
31,33
31,34
31,35
31,36
32,37
32,38
32,39
32,40
32,41
33,37
33,38
33,41
34,37
34,38
34,39
34,40
34,41
35,37
35,38
35,39
35,40
35,41
36,37
36,38
36,39
36,40
36,41
37,42
38,42
38,43
39,48
40,71
40,76
41,42
41,43
42,44
42,47
43,44
43,45
44,46
44,48
44,49
45,46
45,47
45,48
46,52
47,51
48,50
48,51
48,57
49,51
50,53
50,54
51,55
52,53
52,54
52,56
52,57
53,61
53,64
53,67
54,58
54,59
54,60
55,58
55,59
55,60
56,58
56,59
57,60
58,63
58,64
59,62
60,62
60,63
61,63
62,65
62,66
62,67
63,65
63,76
63,83
64,66
65,70
65,80
65,81
66,68
66,69
66,70
66,71
66,72
67,69
67,72
68,73
69,73
69,76
69,86
70,86
70,100
71,80
71,81
71,86
72,74
72,75
73,93
73,96
74,77
75,78
75,79
76,80
76,87
77,81
77,82
77,83
78,81
78,83
80,82
81,87
82,84
82,85
82,88
82,97
82,98
83,84
83,86
83,87
87,89
89,90
89,91
89,92
89,93
90,96
93,94
93,95
95,97
95,98
95,99
95,100
96,99

<end>
